
Gurobi 6.5.2 (linux64) logging started Wed Sep 14 14:58:48 2016

Optimize a model with 21 rows, 41 columns and 87 nonzeros
Coefficient statistics:
  Matrix range    [1e+00, 2e+00]
  Objective range [6e+00, 1e+02]
  Bounds range    [1e+00, 1e+00]
  RHS range       [1e+00, 1e+00]
Presolve removed 9 rows and 6 columns
Presolve time: 0.00s
Presolved: 12 rows, 35 columns, 71 nonzeros
Variable types: 0 continuous, 35 integer (35 binary)
Found heuristic solution: objective 319.0000000

Root relaxation: objective 2.880000e+02, 15 iterations, 0.00 seconds

    Nodes    |    Current Node    |     Objective Bounds      |     Work
 Expl Unexpl |  Obj  Depth IntInf | Incumbent    BestBd   Gap | It/Node Time

     0     0  288.00000    0    6  319.00000  288.00000  9.72%     -    0s
*    0     0               0     306.0000000  306.00000  0.00%     -    0s

Cutting planes:
  Gomory: 2
  Cover: 2
  Clique: 1
  Lazy constraints: 1

Explored 0 nodes (21 simplex iterations) in 0.00 seconds
Thread count was 8 (of 8 available processors)

Optimal solution found (tolerance 1.00e-04)
Best objective 3.060000000000e+02, best bound 3.060000000000e+02, gap 0.0%
